DATASET = "thpack5";
INSTANCE = "077";

WIDTH = 233;
HEIGHT = 220;
LENGTH = 587;

NO_OF_SHAPES = 12;
size = [|
  73,73,36 |
  87,49,26 |
  68,53,44 |
  73,57,33 |
  65,49,47 |
  80,65,35 |
  72,35,26 |
  75,68,40 |
  104,53,34 |
  97,93,45 |
  79,54,49 |
  52,32,27 |
|];

verticality = [|
  0,0,1 |
  0,1,1 |
  1,1,1 |
  0,1,1 |
  1,1,1 |
  0,1,1 |
  0,1,1 |
  1,1,1 |
  0,1,1 |
  0,0,1 |
  1,1,1 |
  1,1,1 |
|];

box_count = [
  16,
  12,
  10,
  24,
  13,
  15,
  18,
  14,
  17,
  16,
  10,
  6,
];
